n_res = 4;
rc = [ 37, 33, 46, 32 ];
n_tasks = 30;
d = [ 9, 1, 5, 2, 8, 10, 9, 8, 8, 9, 7, 2, 8, 9, 8, 3, 8, 7, 4, 6, 5, 8, 6, 4, 1, 10, 7, 7, 7, 9 ];
rr = [| 9, 9, 1, 6, 7, 0, 0, 2, 0, 0, 9, 0, 3, 5, 8, 0, 4, 0, 1, 2, 7, 0, 10, 8, 7, 8, 3, 8, 8, 2
      | 9, 10, 8, 0, 1, 10, 0, 5, 0, 4, 8, 10, 0, 0, 8, 0, 9, 10, 5, 3, 10, 8, 10, 0, 1, 8, 10, 0, 8, 3
      | 9, 0, 2, 7, 2, 8, 9, 10, 10, 5, 0, 9, 10, 5, 5, 3, 4, 9, 2, 4, 6, 0, 0, 8, 0, 5, 5, 7, 10, 6
      | 0, 2, 10, 9, 10, 6, 5, 0, 0, 9, 4, 2, 5, 9, 1, 1, 0, 3, 9, 0, 10, 4, 2, 2, 0, 7, 0, 4, 5, 0 |];
suc = [ { 2 }, 
        { 1 }, 
        { 4 }, 
        { 3 }, 
        { 6 }, 
        { 5 }, 
        { 8 }, 
        { 7 }, 
        { 10 }, 
        { 9 }, 
        { 12 }, 
        { 11 }, 
        { 14 }, 
        { 13 }, 
        { 16 }, 
        { 15 }, 
        { 18 }, 
        { 17 }, 
        { 20 }, 
        { 19 }, 
        { 22 }, 
        { 21 }, 
        { 24 }, 
        { 23 }, 
        { 26 }, 
        { 25 }, 
        { 28 }, 
        { 27 }, 
        { 30 }, 
        { 29 }]; 
